(set-logic QF_S)
(declare-fun var0 () String)
(assert (RegexIn var0 (RegexConcat (RegexUnion (RegexPlus (RegexUnion (RegexPlus (RegexUnion (RegexPlus (RegexUnion (RegexStar (Str2Reg "00")) (RegexStar (Str2Reg "111")))) (RegexPlus (RegexUnion (RegexUnion (Str2Reg "222") (Str2Reg "3")) (RegexUnion (Str2Reg "44") (Str2Reg "55")))))) (RegexPlus (RegexUnion (RegexPlus (RegexUnion (RegexPlus (Str2Reg "66")) (RegexPlus (Str2Reg "77")))) (RegexPlus (RegexUnion (RegexPlus (Str2Reg "88")) (RegexPlus (Str2Reg "99")))))))) (RegexPlus (RegexPlus (RegexStar (RegexUnion (RegexUnion (RegexPlus (RegexUnion (Str2Reg "aa") (Str2Reg "b"))) (RegexPlus (RegexPlus (Str2Reg "c")))) (RegexUnion (RegexPlus (RegexUnion (Str2Reg "ddd") (Str2Reg "e"))) (RegexPlus (RegexStar (Str2Reg "f"))))))))) (RegexStar (RegexPlus (RegexUnion (RegexUnion (RegexStar (RegexPlus (RegexPlus (RegexUnion (Str2Reg "g") (Str2Reg "hhh"))))) (RegexStar (RegexPlus (RegexUnion (RegexStar (Str2Reg "ii")) (RegexStar (Str2Reg "jjj")))))) (RegexUnion (RegexStar (RegexPlus (RegexPlus (RegexPlus (Str2Reg "kk"))))) (RegexStar (RegexStar (RegexStar (RegexStar (Str2Reg "l"))))))))))))
(assert (<= 15 (Length var0)))
(check-sat)